logs/full/max/full-05-15-0.lp
\ LP format - for model browsing. Use MPS format to capture full model detail.
Maximize
  x0,1_4 + x0,1_5 + x0,1_6 + x0,1_9 + x0,1_10 + x0,1_11 + x0,1_15 + x0,1_16
   + x0,1_21 + x0,1_25 + x0,2_4 + x0,2_5 + x0,2_6 + x0,2_9 + x0,2_10
   + x0,2_11 + x0,2_15 + x0,2_16 + x0,2_21 + x0,2_25 + x0,3_4 + x0,3_5
   + x0,3_6 + x0,3_9 + x0,3_10 + x0,3_11 + x0,3_15 + x0,3_16 + x0,3_21
   + x0,3_25 + x0,4_4 + x0,4_5 + x0,4_6 + x0,4_9 + x0,4_10 + x0,4_11
   + x0,4_15 + x0,4_16 + x0,4_21 + x0,4_25 + x0,5_4 + x0,5_5 + x0,5_6
   + x0,5_9 + x0,5_10 + x0,5_11 + x0,5_15 + x0,5_16 + x0,5_21 + x0,5_25
   + x1,2_4 + x1,2_5 + x1,2_6 + x1,2_9 + x1,2_10 + x1,2_11 + x1,2_15
   + x1,2_16 + x1,2_21 + x1,2_25 + x1,3_4 + x1,3_5 + x1,3_6 + x1,3_9
   + x1,3_10 + x1,3_11 + x1,3_15 + x1,3_16 + x1,3_21 + x1,3_25 + x1,4_4
   + x1,4_5 + x1,4_6 + x1,4_9 + x1,4_10 + x1,4_11 + x1,4_15 + x1,4_16
   + x1,4_21 + x1,4_25 + x1,5_4 + x1,5_5 + x1,5_6 + x1,5_9 + x1,5_10
   + x1,5_11 + x1,5_15 + x1,5_16 + x1,5_21 + x1,5_25 + x2,3_4 + x2,3_5
   + x2,3_6 + x2,3_9 + x2,3_10 + x2,3_11 + x2,3_15 + x2,3_16 + x2,3_21
   + x2,3_25 + x2,4_4 + x2,4_5 + x2,4_6 + x2,4_9 + x2,4_10 + x2,4_11
   + x2,4_15 + x2,4_16 + x2,4_21 + x2,4_25 + x2,5_4 + x2,5_5 + x2,5_6
   + x2,5_9 + x2,5_10 + x2,5_11 + x2,5_15 + x2,5_16 + x2,5_21 + x2,5_25
   + x3,4_4 + x3,4_5 + x3,4_6 + x3,4_9 + x3,4_10 + x3,4_11 + x3,4_15
   + x3,4_16 + x3,4_21 + x3,4_25 + x3,5_4 + x3,5_5 + x3,5_6 + x3,5_9
   + x3,5_10 + x3,5_11 + x3,5_15 + x3,5_16 + x3,5_21 + x3,5_25 + x4,5_4
   + x4,5_5 + x4,5_6 + x4,5_9 + x4,5_10 + x4,5_11 + x4,5_15 + x4,5_16
   + x4,5_21 + x4,5_25
Subject To
 R0: x0,1_4 + x0,2_4 + x0,3_4 + x0,4_4 + x0,5_4 + x1,2_4 + x1,3_4 + x1,4_4
   + x1,5_4 + x2,3_4 + x2,4_4 + x2,5_4 + x3,4_4 + x3,5_4 + x4,5_4 <= 1
 R1: x0,1_5 + x0,2_5 + x0,3_5 + x0,4_5 + x0,5_5 + x1,2_5 + x1,3_5 + x1,4_5
   + x1,5_5 + x2,3_5 + x2,4_5 + x2,5_5 + x3,4_5 + x3,5_5 + x4,5_5 <= 1
 R2: x0,1_6 + x0,2_6 + x0,3_6 + x0,4_6 + x0,5_6 + x1,2_6 + x1,3_6 + x1,4_6
   + x1,5_6 + x2,3_6 + x2,4_6 + x2,5_6 + x3,4_6 + x3,5_6 + x4,5_6 <= 1
 R3: x0,1_9 + x0,2_9 + x0,3_9 + x0,4_9 + x0,5_9 + x1,2_9 + x1,3_9 + x1,4_9
   + x1,5_9 + x2,3_9 + x2,4_9 + x2,5_9 + x3,4_9 + x3,5_9 + x4,5_9 <= 1
 R4: x0,1_10 + x0,2_10 + x0,3_10 + x0,4_10 + x0,5_10 + x1,2_10 + x1,3_10
   + x1,4_10 + x1,5_10 + x2,3_10 + x2,4_10 + x2,5_10 + x3,4_10 + x3,5_10
   + x4,5_10 <= 1
 R5: x0,1_11 + x0,2_11 + x0,3_11 + x0,4_11 + x0,5_11 + x1,2_11 + x1,3_11
   + x1,4_11 + x1,5_11 + x2,3_11 + x2,4_11 + x2,5_11 + x3,4_11 + x3,5_11
   + x4,5_11 <= 1
 R6: x0,1_15 + x0,2_15 + x0,3_15 + x0,4_15 + x0,5_15 + x1,2_15 + x1,3_15
   + x1,4_15 + x1,5_15 + x2,3_15 + x2,4_15 + x2,5_15 + x3,4_15 + x3,5_15
   + x4,5_15 <= 1
 R7: x0,1_16 + x0,2_16 + x0,3_16 + x0,4_16 + x0,5_16 + x1,2_16 + x1,3_16
   + x1,4_16 + x1,5_16 + x2,3_16 + x2,4_16 + x2,5_16 + x3,4_16 + x3,5_16
   + x4,5_16 <= 1
 R8: x0,1_21 + x0,2_21 + x0,3_21 + x0,4_21 + x0,5_21 + x1,2_21 + x1,3_21
   + x1,4_21 + x1,5_21 + x2,3_21 + x2,4_21 + x2,5_21 + x3,4_21 + x3,5_21
   + x4,5_21 <= 1
 R9: x0,1_25 + x0,2_25 + x0,3_25 + x0,4_25 + x0,5_25 + x1,2_25 + x1,3_25
   + x1,4_25 + x1,5_25 + x2,3_25 + x2,4_25 + x2,5_25 + x3,4_25 + x3,5_25
   + x4,5_25 <= 1
 R10: x0,1_4 + x0,1_5 + x0,1_6 + x0,1_9 + x0,1_10 + x0,1_11 + x0,1_15
   + x0,1_16 + x0,1_21 + x0,1_25 <= 1
 R11: x0,2_4 + x0,2_5 + x0,2_6 + x0,2_9 + x0,2_10 + x0,2_11 + x0,2_15
   + x0,2_16 + x0,2_21 + x0,2_25 <= 1
 R12: x0,3_4 + x0,3_5 + x0,3_6 + x0,3_9 + x0,3_10 + x0,3_11 + x0,3_15
   + x0,3_16 + x0,3_21 + x0,3_25 <= 1
 R13: x0,4_4 + x0,4_5 + x0,4_6 + x0,4_9 + x0,4_10 + x0,4_11 + x0,4_15
   + x0,4_16 + x0,4_21 + x0,4_25 <= 1
 R14: x0,5_4 + x0,5_5 + x0,5_6 + x0,5_9 + x0,5_10 + x0,5_11 + x0,5_15
   + x0,5_16 + x0,5_21 + x0,5_25 <= 1
 R15: x1,2_4 + x1,2_5 + x1,2_6 + x1,2_9 + x1,2_10 + x1,2_11 + x1,2_15
   + x1,2_16 + x1,2_21 + x1,2_25 <= 1
 R16: x1,3_4 + x1,3_5 + x1,3_6 + x1,3_9 + x1,3_10 + x1,3_11 + x1,3_15
   + x1,3_16 + x1,3_21 + x1,3_25 <= 1
 R17: x1,4_4 + x1,4_5 + x1,4_6 + x1,4_9 + x1,4_10 + x1,4_11 + x1,4_15
   + x1,4_16 + x1,4_21 + x1,4_25 <= 1
 R18: x1,5_4 + x1,5_5 + x1,5_6 + x1,5_9 + x1,5_10 + x1,5_11 + x1,5_15
   + x1,5_16 + x1,5_21 + x1,5_25 <= 1
 R19: x2,3_4 + x2,3_5 + x2,3_6 + x2,3_9 + x2,3_10 + x2,3_11 + x2,3_15
   + x2,3_16 + x2,3_21 + x2,3_25 <= 1
 R20: x2,4_4 + x2,4_5 + x2,4_6 + x2,4_9 + x2,4_10 + x2,4_11 + x2,4_15
   + x2,4_16 + x2,4_21 + x2,4_25 <= 1
 R21: x2,5_4 + x2,5_5 + x2,5_6 + x2,5_9 + x2,5_10 + x2,5_11 + x2,5_15
   + x2,5_16 + x2,5_21 + x2,5_25 <= 1
 R22: x3,4_4 + x3,4_5 + x3,4_6 + x3,4_9 + x3,4_10 + x3,4_11 + x3,4_15
   + x3,4_16 + x3,4_21 + x3,4_25 <= 1
 R23: x3,5_4 + x3,5_5 + x3,5_6 + x3,5_9 + x3,5_10 + x3,5_11 + x3,5_15
   + x3,5_16 + x3,5_21 + x3,5_25 <= 1
 R24: x4,5_4 + x4,5_5 + x4,5_6 + x4,5_9 + x4,5_10 + x4,5_11 + x4,5_15
   + x4,5_16 + x4,5_21 + x4,5_25 <= 1
 R25: p0 - p1 <= -1
 R26: - 4 x0,1_4 - p0 + p1 >= 0
 R27: 122 x0,1_4 - p0 + p1 <= 126
 R28: - 5 x0,1_5 - p0 + p1 >= 0
 R29: 122 x0,1_5 - p0 + p1 <= 127
 R30: - 6 x0,1_6 - p0 + p1 >= 0
 R31: 122 x0,1_6 - p0 + p1 <= 128
 R32: - 9 x0,1_9 - p0 + p1 >= 0
 R33: 122 x0,1_9 - p0 + p1 <= 131
 R34: - 10 x0,1_10 - p0 + p1 >= 0
 R35: 122 x0,1_10 - p0 + p1 <= 132
 R36: - 11 x0,1_11 - p0 + p1 >= 0
 R37: 122 x0,1_11 - p0 + p1 <= 133
 R38: - 15 x0,1_15 - p0 + p1 >= 0
 R39: 122 x0,1_15 - p0 + p1 <= 137
 R40: - 16 x0,1_16 - p0 + p1 >= 0
 R41: 122 x0,1_16 - p0 + p1 <= 138
 R42: - 21 x0,1_21 - p0 + p1 >= 0
 R43: 122 x0,1_21 - p0 + p1 <= 143
 R44: - 25 x0,1_25 - p0 + p1 >= 0
 R45: 122 x0,1_25 - p0 + p1 <= 147
 R46: p0 - p2 <= -1
 R47: - 4 x0,2_4 - p0 + p2 >= 0
 R48: 122 x0,2_4 - p0 + p2 <= 126
 R49: - 5 x0,2_5 - p0 + p2 >= 0
 R50: 122 x0,2_5 - p0 + p2 <= 127
 R51: - 6 x0,2_6 - p0 + p2 >= 0
 R52: 122 x0,2_6 - p0 + p2 <= 128
 R53: - 9 x0,2_9 - p0 + p2 >= 0
 R54: 122 x0,2_9 - p0 + p2 <= 131
 R55: - 10 x0,2_10 - p0 + p2 >= 0
 R56: 122 x0,2_10 - p0 + p2 <= 132
 R57: - 11 x0,2_11 - p0 + p2 >= 0
 R58: 122 x0,2_11 - p0 + p2 <= 133
 R59: - 15 x0,2_15 - p0 + p2 >= 0
 R60: 122 x0,2_15 - p0 + p2 <= 137
 R61: - 16 x0,2_16 - p0 + p2 >= 0
 R62: 122 x0,2_16 - p0 + p2 <= 138
 R63: - 21 x0,2_21 - p0 + p2 >= 0
 R64: 122 x0,2_21 - p0 + p2 <= 143
 R65: - 25 x0,2_25 - p0 + p2 >= 0
 R66: 122 x0,2_25 - p0 + p2 <= 147
 R67: p0 - p3 <= -1
 R68: - 4 x0,3_4 - p0 + p3 >= 0
 R69: 122 x0,3_4 - p0 + p3 <= 126
 R70: - 5 x0,3_5 - p0 + p3 >= 0
 R71: 122 x0,3_5 - p0 + p3 <= 127
 R72: - 6 x0,3_6 - p0 + p3 >= 0
 R73: 122 x0,3_6 - p0 + p3 <= 128
 R74: - 9 x0,3_9 - p0 + p3 >= 0
 R75: 122 x0,3_9 - p0 + p3 <= 131
 R76: - 10 x0,3_10 - p0 + p3 >= 0
 R77: 122 x0,3_10 - p0 + p3 <= 132
 R78: - 11 x0,3_11 - p0 + p3 >= 0
 R79: 122 x0,3_11 - p0 + p3 <= 133
 R80: - 15 x0,3_15 - p0 + p3 >= 0
 R81: 122 x0,3_15 - p0 + p3 <= 137
 R82: - 16 x0,3_16 - p0 + p3 >= 0
 R83: 122 x0,3_16 - p0 + p3 <= 138
 R84: - 21 x0,3_21 - p0 + p3 >= 0
 R85: 122 x0,3_21 - p0 + p3 <= 143
 R86: - 25 x0,3_25 - p0 + p3 >= 0
 R87: 122 x0,3_25 - p0 + p3 <= 147
 R88: p0 - p4 <= -1
 R89: - 4 x0,4_4 - p0 + p4 >= 0
 R90: 122 x0,4_4 - p0 + p4 <= 126
 R91: - 5 x0,4_5 - p0 + p4 >= 0
 R92: 122 x0,4_5 - p0 + p4 <= 127
 R93: - 6 x0,4_6 - p0 + p4 >= 0
 R94: 122 x0,4_6 - p0 + p4 <= 128
 R95: - 9 x0,4_9 - p0 + p4 >= 0
 R96: 122 x0,4_9 - p0 + p4 <= 131
 R97: - 10 x0,4_10 - p0 + p4 >= 0
 R98: 122 x0,4_10 - p0 + p4 <= 132
 R99: - 11 x0,4_11 - p0 + p4 >= 0
 R100: 122 x0,4_11 - p0 + p4 <= 133
 R101: - 15 x0,4_15 - p0 + p4 >= 0
 R102: 122 x0,4_15 - p0 + p4 <= 137
 R103: - 16 x0,4_16 - p0 + p4 >= 0
 R104: 122 x0,4_16 - p0 + p4 <= 138
 R105: - 21 x0,4_21 - p0 + p4 >= 0
 R106: 122 x0,4_21 - p0 + p4 <= 143
 R107: - 25 x0,4_25 - p0 + p4 >= 0
 R108: 122 x0,4_25 - p0 + p4 <= 147
 R109: p0 - p5 <= -1
 R110: - 4 x0,5_4 - p0 + p5 >= 0
 R111: 122 x0,5_4 - p0 + p5 <= 126
 R112: - 5 x0,5_5 - p0 + p5 >= 0
 R113: 122 x0,5_5 - p0 + p5 <= 127
 R114: - 6 x0,5_6 - p0 + p5 >= 0
 R115: 122 x0,5_6 - p0 + p5 <= 128
 R116: - 9 x0,5_9 - p0 + p5 >= 0
 R117: 122 x0,5_9 - p0 + p5 <= 131
 R118: - 10 x0,5_10 - p0 + p5 >= 0
 R119: 122 x0,5_10 - p0 + p5 <= 132
 R120: - 11 x0,5_11 - p0 + p5 >= 0
 R121: 122 x0,5_11 - p0 + p5 <= 133
 R122: - 15 x0,5_15 - p0 + p5 >= 0
 R123: 122 x0,5_15 - p0 + p5 <= 137
 R124: - 16 x0,5_16 - p0 + p5 >= 0
 R125: 122 x0,5_16 - p0 + p5 <= 138
 R126: - 21 x0,5_21 - p0 + p5 >= 0
 R127: 122 x0,5_21 - p0 + p5 <= 143
 R128: - 25 x0,5_25 - p0 + p5 >= 0
 R129: 122 x0,5_25 - p0 + p5 <= 147
 R130: p1 - p2 <= -1
 R131: - 4 x1,2_4 - p1 + p2 >= 0
 R132: 122 x1,2_4 - p1 + p2 <= 126
 R133: - 5 x1,2_5 - p1 + p2 >= 0
 R134: 122 x1,2_5 - p1 + p2 <= 127
 R135: - 6 x1,2_6 - p1 + p2 >= 0
 R136: 122 x1,2_6 - p1 + p2 <= 128
 R137: - 9 x1,2_9 - p1 + p2 >= 0
 R138: 122 x1,2_9 - p1 + p2 <= 131
 R139: - 10 x1,2_10 - p1 + p2 >= 0
 R140: 122 x1,2_10 - p1 + p2 <= 132
 R141: - 11 x1,2_11 - p1 + p2 >= 0
 R142: 122 x1,2_11 - p1 + p2 <= 133
 R143: - 15 x1,2_15 - p1 + p2 >= 0
 R144: 122 x1,2_15 - p1 + p2 <= 137
 R145: - 16 x1,2_16 - p1 + p2 >= 0
 R146: 122 x1,2_16 - p1 + p2 <= 138
 R147: - 21 x1,2_21 - p1 + p2 >= 0
 R148: 122 x1,2_21 - p1 + p2 <= 143
 R149: - 25 x1,2_25 - p1 + p2 >= 0
 R150: 122 x1,2_25 - p1 + p2 <= 147
 R151: p1 - p3 <= -1
 R152: - 4 x1,3_4 - p1 + p3 >= 0
 R153: 122 x1,3_4 - p1 + p3 <= 126
 R154: - 5 x1,3_5 - p1 + p3 >= 0
 R155: 122 x1,3_5 - p1 + p3 <= 127
 R156: - 6 x1,3_6 - p1 + p3 >= 0
 R157: 122 x1,3_6 - p1 + p3 <= 128
 R158: - 9 x1,3_9 - p1 + p3 >= 0
 R159: 122 x1,3_9 - p1 + p3 <= 131
 R160: - 10 x1,3_10 - p1 + p3 >= 0
 R161: 122 x1,3_10 - p1 + p3 <= 132
 R162: - 11 x1,3_11 - p1 + p3 >= 0
 R163: 122 x1,3_11 - p1 + p3 <= 133
 R164: - 15 x1,3_15 - p1 + p3 >= 0
 R165: 122 x1,3_15 - p1 + p3 <= 137
 R166: - 16 x1,3_16 - p1 + p3 >= 0
 R167: 122 x1,3_16 - p1 + p3 <= 138
 R168: - 21 x1,3_21 - p1 + p3 >= 0
 R169: 122 x1,3_21 - p1 + p3 <= 143
 R170: - 25 x1,3_25 - p1 + p3 >= 0
 R171: 122 x1,3_25 - p1 + p3 <= 147
 R172: p1 - p4 <= -1
 R173: - 4 x1,4_4 - p1 + p4 >= 0
 R174: 122 x1,4_4 - p1 + p4 <= 126
 R175: - 5 x1,4_5 - p1 + p4 >= 0
 R176: 122 x1,4_5 - p1 + p4 <= 127
 R177: - 6 x1,4_6 - p1 + p4 >= 0
 R178: 122 x1,4_6 - p1 + p4 <= 128
 R179: - 9 x1,4_9 - p1 + p4 >= 0
 R180: 122 x1,4_9 - p1 + p4 <= 131
 R181: - 10 x1,4_10 - p1 + p4 >= 0
 R182: 122 x1,4_10 - p1 + p4 <= 132
 R183: - 11 x1,4_11 - p1 + p4 >= 0
 R184: 122 x1,4_11 - p1 + p4 <= 133
 R185: - 15 x1,4_15 - p1 + p4 >= 0
 R186: 122 x1,4_15 - p1 + p4 <= 137
 R187: - 16 x1,4_16 - p1 + p4 >= 0
 R188: 122 x1,4_16 - p1 + p4 <= 138
 R189: - 21 x1,4_21 - p1 + p4 >= 0
 R190: 122 x1,4_21 - p1 + p4 <= 143
 R191: - 25 x1,4_25 - p1 + p4 >= 0
 R192: 122 x1,4_25 - p1 + p4 <= 147
 R193: p1 - p5 <= -1
 R194: - 4 x1,5_4 - p1 + p5 >= 0
 R195: 122 x1,5_4 - p1 + p5 <= 126
 R196: - 5 x1,5_5 - p1 + p5 >= 0
 R197: 122 x1,5_5 - p1 + p5 <= 127
 R198: - 6 x1,5_6 - p1 + p5 >= 0
 R199: 122 x1,5_6 - p1 + p5 <= 128
 R200: - 9 x1,5_9 - p1 + p5 >= 0
 R201: 122 x1,5_9 - p1 + p5 <= 131
 R202: - 10 x1,5_10 - p1 + p5 >= 0
 R203: 122 x1,5_10 - p1 + p5 <= 132
 R204: - 11 x1,5_11 - p1 + p5 >= 0
 R205: 122 x1,5_11 - p1 + p5 <= 133
 R206: - 15 x1,5_15 - p1 + p5 >= 0
 R207: 122 x1,5_15 - p1 + p5 <= 137
 R208: - 16 x1,5_16 - p1 + p5 >= 0
 R209: 122 x1,5_16 - p1 + p5 <= 138
 R210: - 21 x1,5_21 - p1 + p5 >= 0
 R211: 122 x1,5_21 - p1 + p5 <= 143
 R212: - 25 x1,5_25 - p1 + p5 >= 0
 R213: 122 x1,5_25 - p1 + p5 <= 147
 R214: p2 - p3 <= -1
 R215: - 4 x2,3_4 - p2 + p3 >= 0
 R216: 122 x2,3_4 - p2 + p3 <= 126
 R217: - 5 x2,3_5 - p2 + p3 >= 0
 R218: 122 x2,3_5 - p2 + p3 <= 127
 R219: - 6 x2,3_6 - p2 + p3 >= 0
 R220: 122 x2,3_6 - p2 + p3 <= 128
 R221: - 9 x2,3_9 - p2 + p3 >= 0
 R222: 122 x2,3_9 - p2 + p3 <= 131
 R223: - 10 x2,3_10 - p2 + p3 >= 0
 R224: 122 x2,3_10 - p2 + p3 <= 132
 R225: - 11 x2,3_11 - p2 + p3 >= 0
 R226: 122 x2,3_11 - p2 + p3 <= 133
 R227: - 15 x2,3_15 - p2 + p3 >= 0
 R228: 122 x2,3_15 - p2 + p3 <= 137
 R229: - 16 x2,3_16 - p2 + p3 >= 0
 R230: 122 x2,3_16 - p2 + p3 <= 138
 R231: - 21 x2,3_21 - p2 + p3 >= 0
 R232: 122 x2,3_21 - p2 + p3 <= 143
 R233: - 25 x2,3_25 - p2 + p3 >= 0
 R234: 122 x2,3_25 - p2 + p3 <= 147
 R235: p2 - p4 <= -1
 R236: - 4 x2,4_4 - p2 + p4 >= 0
 R237: 122 x2,4_4 - p2 + p4 <= 126
 R238: - 5 x2,4_5 - p2 + p4 >= 0
 R239: 122 x2,4_5 - p2 + p4 <= 127
 R240: - 6 x2,4_6 - p2 + p4 >= 0
 R241: 122 x2,4_6 - p2 + p4 <= 128
 R242: - 9 x2,4_9 - p2 + p4 >= 0
 R243: 122 x2,4_9 - p2 + p4 <= 131
 R244: - 10 x2,4_10 - p2 + p4 >= 0
 R245: 122 x2,4_10 - p2 + p4 <= 132
 R246: - 11 x2,4_11 - p2 + p4 >= 0
 R247: 122 x2,4_11 - p2 + p4 <= 133
 R248: - 15 x2,4_15 - p2 + p4 >= 0
 R249: 122 x2,4_15 - p2 + p4 <= 137
 R250: - 16 x2,4_16 - p2 + p4 >= 0
 R251: 122 x2,4_16 - p2 + p4 <= 138
 R252: - 21 x2,4_21 - p2 + p4 >= 0
 R253: 122 x2,4_21 - p2 + p4 <= 143
 R254: - 25 x2,4_25 - p2 + p4 >= 0
 R255: 122 x2,4_25 - p2 + p4 <= 147
 R256: p2 - p5 <= -1
 R257: - 4 x2,5_4 - p2 + p5 >= 0
 R258: 122 x2,5_4 - p2 + p5 <= 126
 R259: - 5 x2,5_5 - p2 + p5 >= 0
 R260: 122 x2,5_5 - p2 + p5 <= 127
 R261: - 6 x2,5_6 - p2 + p5 >= 0
 R262: 122 x2,5_6 - p2 + p5 <= 128
 R263: - 9 x2,5_9 - p2 + p5 >= 0
 R264: 122 x2,5_9 - p2 + p5 <= 131
 R265: - 10 x2,5_10 - p2 + p5 >= 0
 R266: 122 x2,5_10 - p2 + p5 <= 132
 R267: - 11 x2,5_11 - p2 + p5 >= 0
 R268: 122 x2,5_11 - p2 + p5 <= 133
 R269: - 15 x2,5_15 - p2 + p5 >= 0
 R270: 122 x2,5_15 - p2 + p5 <= 137
 R271: - 16 x2,5_16 - p2 + p5 >= 0
 R272: 122 x2,5_16 - p2 + p5 <= 138
 R273: - 21 x2,5_21 - p2 + p5 >= 0
 R274: 122 x2,5_21 - p2 + p5 <= 143
 R275: - 25 x2,5_25 - p2 + p5 >= 0
 R276: 122 x2,5_25 - p2 + p5 <= 147
 R277: p3 - p4 <= -1
 R278: - 4 x3,4_4 - p3 + p4 >= 0
 R279: 122 x3,4_4 - p3 + p4 <= 126
 R280: - 5 x3,4_5 - p3 + p4 >= 0
 R281: 122 x3,4_5 - p3 + p4 <= 127
 R282: - 6 x3,4_6 - p3 + p4 >= 0
 R283: 122 x3,4_6 - p3 + p4 <= 128
 R284: - 9 x3,4_9 - p3 + p4 >= 0
 R285: 122 x3,4_9 - p3 + p4 <= 131
 R286: - 10 x3,4_10 - p3 + p4 >= 0
 R287: 122 x3,4_10 - p3 + p4 <= 132
 R288: - 11 x3,4_11 - p3 + p4 >= 0
 R289: 122 x3,4_11 - p3 + p4 <= 133
 R290: - 15 x3,4_15 - p3 + p4 >= 0
 R291: 122 x3,4_15 - p3 + p4 <= 137
 R292: - 16 x3,4_16 - p3 + p4 >= 0
 R293: 122 x3,4_16 - p3 + p4 <= 138
 R294: - 21 x3,4_21 - p3 + p4 >= 0
 R295: 122 x3,4_21 - p3 + p4 <= 143
 R296: - 25 x3,4_25 - p3 + p4 >= 0
 R297: 122 x3,4_25 - p3 + p4 <= 147
 R298: p3 - p5 <= -1
 R299: - 4 x3,5_4 - p3 + p5 >= 0
 R300: 122 x3,5_4 - p3 + p5 <= 126
 R301: - 5 x3,5_5 - p3 + p5 >= 0
 R302: 122 x3,5_5 - p3 + p5 <= 127
 R303: - 6 x3,5_6 - p3 + p5 >= 0
 R304: 122 x3,5_6 - p3 + p5 <= 128
 R305: - 9 x3,5_9 - p3 + p5 >= 0
 R306: 122 x3,5_9 - p3 + p5 <= 131
 R307: - 10 x3,5_10 - p3 + p5 >= 0
 R308: 122 x3,5_10 - p3 + p5 <= 132
 R309: - 11 x3,5_11 - p3 + p5 >= 0
 R310: 122 x3,5_11 - p3 + p5 <= 133
 R311: - 15 x3,5_15 - p3 + p5 >= 0
 R312: 122 x3,5_15 - p3 + p5 <= 137
 R313: - 16 x3,5_16 - p3 + p5 >= 0
 R314: 122 x3,5_16 - p3 + p5 <= 138
 R315: - 21 x3,5_21 - p3 + p5 >= 0
 R316: 122 x3,5_21 - p3 + p5 <= 143
 R317: - 25 x3,5_25 - p3 + p5 >= 0
 R318: 122 x3,5_25 - p3 + p5 <= 147
 R319: p4 - p5 <= -1
 R320: - 4 x4,5_4 - p4 + p5 >= 0
 R321: 122 x4,5_4 - p4 + p5 <= 126
 R322: - 5 x4,5_5 - p4 + p5 >= 0
 R323: 122 x4,5_5 - p4 + p5 <= 127
 R324: - 6 x4,5_6 - p4 + p5 >= 0
 R325: 122 x4,5_6 - p4 + p5 <= 128
 R326: - 9 x4,5_9 - p4 + p5 >= 0
 R327: 122 x4,5_9 - p4 + p5 <= 131
 R328: - 10 x4,5_10 - p4 + p5 >= 0
 R329: 122 x4,5_10 - p4 + p5 <= 132
 R330: - 11 x4,5_11 - p4 + p5 >= 0
 R331: 122 x4,5_11 - p4 + p5 <= 133
 R332: - 15 x4,5_15 - p4 + p5 >= 0
 R333: 122 x4,5_15 - p4 + p5 <= 137
 R334: - 16 x4,5_16 - p4 + p5 >= 0
 R335: 122 x4,5_16 - p4 + p5 <= 138
 R336: - 21 x4,5_21 - p4 + p5 >= 0
 R337: 122 x4,5_21 - p4 + p5 <= 143
 R338: - 25 x4,5_25 - p4 + p5 >= 0
 R339: 122 x4,5_25 - p4 + p5 <= 147
Bounds
Binaries
 x0,1_4 x0,1_5 x0,1_6 x0,1_9 x0,1_10 x0,1_11 x0,1_15 x0,1_16 x0,1_21
 x0,1_25 x0,2_4 x0,2_5 x0,2_6 x0,2_9 x0,2_10 x0,2_11 x0,2_15 x0,2_16
 x0,2_21 x0,2_25 x0,3_4 x0,3_5 x0,3_6 x0,3_9 x0,3_10 x0,3_11 x0,3_15
 x0,3_16 x0,3_21 x0,3_25 x0,4_4 x0,4_5 x0,4_6 x0,4_9 x0,4_10 x0,4_11
 x0,4_15 x0,4_16 x0,4_21 x0,4_25 x0,5_4 x0,5_5 x0,5_6 x0,5_9 x0,5_10
 x0,5_11 x0,5_15 x0,5_16 x0,5_21 x0,5_25 x1,2_4 x1,2_5 x1,2_6 x1,2_9
 x1,2_10 x1,2_11 x1,2_15 x1,2_16 x1,2_21 x1,2_25 x1,3_4 x1,3_5 x1,3_6
 x1,3_9 x1,3_10 x1,3_11 x1,3_15 x1,3_16 x1,3_21 x1,3_25 x1,4_4 x1,4_5
 x1,4_6 x1,4_9 x1,4_10 x1,4_11 x1,4_15 x1,4_16 x1,4_21 x1,4_25 x1,5_4
 x1,5_5 x1,5_6 x1,5_9 x1,5_10 x1,5_11 x1,5_15 x1,5_16 x1,5_21 x1,5_25
 x2,3_4 x2,3_5 x2,3_6 x2,3_9 x2,3_10 x2,3_11 x2,3_15 x2,3_16 x2,3_21
 x2,3_25 x2,4_4 x2,4_5 x2,4_6 x2,4_9 x2,4_10 x2,4_11 x2,4_15 x2,4_16
 x2,4_21 x2,4_25 x2,5_4 x2,5_5 x2,5_6 x2,5_9 x2,5_10 x2,5_11 x2,5_15
 x2,5_16 x2,5_21 x2,5_25 x3,4_4 x3,4_5 x3,4_6 x3,4_9 x3,4_10 x3,4_11
 x3,4_15 x3,4_16 x3,4_21 x3,4_25 x3,5_4 x3,5_5 x3,5_6 x3,5_9 x3,5_10
 x3,5_11 x3,5_15 x3,5_16 x3,5_21 x3,5_25 x4,5_4 x4,5_5 x4,5_6 x4,5_9
 x4,5_10 x4,5_11 x4,5_15 x4,5_16 x4,5_21 x4,5_25
Generals
 p0 p1 p2 p3 p4 p5
End
