logs/full/max/full-05-15-0.sol
# Objective value = 10
x0,1_4 0
x0,1_5 0
x0,1_6 0
x0,1_9 0
x0,1_10 0
x0,1_11 0
x0,1_15 0
x0,1_16 0
x0,1_21 0
x0,1_25 0
x0,2_4 1
x0,2_5 0
x0,2_6 0
x0,2_9 0
x0,2_10 0
x0,2_11 0
x0,2_15 0
x0,2_16 0
x0,2_21 0
x0,2_25 0
x0,3_4 0
x0,3_5 0
x0,3_6 0
x0,3_9 1
x0,3_10 0
x0,3_11 0
x0,3_15 0
x0,3_16 0
x0,3_21 0
x0,3_25 0
x0,4_4 0
x0,4_5 0
x0,4_6 0
x0,4_9 0
x0,4_10 0
x0,4_11 0
x0,4_15 1
x0,4_16 0
x0,4_21 0
x0,4_25 0
x0,5_4 0
x0,5_5 0
x0,5_6 0
x0,5_9 0
x0,5_10 0
x0,5_11 0
x0,5_15 0
x0,5_16 0
x0,5_21 0
x0,5_25 1
x1,2_4 0
x1,2_5 0
x1,2_6 0
x1,2_9 0
x1,2_10 0
x1,2_11 0
x1,2_15 0
x1,2_16 0
x1,2_21 0
x1,2_25 0
x1,3_4 0
x1,3_5 0
x1,3_6 0
x1,3_9 0
x1,3_10 0
x1,3_11 0
x1,3_15 0
x1,3_16 0
x1,3_21 0
x1,3_25 0
x1,4_4 0
x1,4_5 0
x1,4_6 0
x1,4_9 0
x1,4_10 0
x1,4_11 0
x1,4_15 0
x1,4_16 0
x1,4_21 0
x1,4_25 0
x1,5_4 0
x1,5_5 0
x1,5_6 0
x1,5_9 0
x1,5_10 0
x1,5_11 0
x1,5_15 0
x1,5_16 0
x1,5_21 0
x1,5_25 0
x2,3_4 0
x2,3_5 1
x2,3_6 0
x2,3_9 0
x2,3_10 0
x2,3_11 0
x2,3_15 0
x2,3_16 0
x2,3_21 0
x2,3_25 0
x2,4_4 0
x2,4_5 0
x2,4_6 0
x2,4_9 0
x2,4_10 0
x2,4_11 1
x2,4_15 0
x2,4_16 0
x2,4_21 0
x2,4_25 0
x2,5_4 0
x2,5_5 0
x2,5_6 0
x2,5_9 0
x2,5_10 0
x2,5_11 0
x2,5_15 0
x2,5_16 0
x2,5_21 1
x2,5_25 0
x3,4_4 0
x3,4_5 0
x3,4_6 1
x3,4_9 0
x3,4_10 0
x3,4_11 0
x3,4_15 0
x3,4_16 0
x3,4_21 0
x3,4_25 0
x3,5_4 0
x3,5_5 0
x3,5_6 0
x3,5_9 0
x3,5_10 0
x3,5_11 0
x3,5_15 0
x3,5_16 1
x3,5_21 0
x3,5_25 0
x4,5_4 0
x4,5_5 0
x4,5_6 0
x4,5_9 0
x4,5_10 1
x4,5_11 0
x4,5_15 0
x4,5_16 0
x4,5_21 0
x4,5_25 0
p0 1
p1 4
p2 5
p3 10
p4 16
p5 26
